c Reduced graph for GEOM70a_0 generated by Cyril Grelier
p edge 66 432
e 1 2
e 1 6
e 1 14
e 1 15
e 1 16
e 1 23
e 1 32
e 1 34
e 1 42
e 1 43
e 1 51
e 1 52
e 1 53
e 1 56
e 1 60
e 1 61
e 1 63
e 2 6
e 2 11
e 2 13
e 2 15
e 2 16
e 2 20
e 2 21
e 2 33
e 2 42
e 2 43
e 2 46
e 2 51
e 2 53
e 2 54
e 2 56
e 3 7
e 3 8
e 3 17
e 3 18
e 3 19
e 3 24
e 3 28
e 3 31
e 3 35
e 3 40
e 3 41
e 3 44
e 3 47
e 3 55
e 3 58
e 3 64
e 4 12
e 4 16
e 4 27
e 4 29
e 4 53
e 4 54
e 4 57
e 4 61
e 4 62
e 4 65
e 5 21
e 5 30
e 5 35
e 5 39
e 5 44
e 5 46
e 5 50
e 5 59
e 6 14
e 6 15
e 6 16
e 6 20
e 6 23
e 6 32
e 6 34
e 6 38
e 6 42
e 6 43
e 6 48
e 6 51
e 6 52
e 6 53
e 6 56
e 6 60
e 6 63
e 7 8
e 7 17
e 7 18
e 7 19
e 7 24
e 7 28
e 7 31
e 7 35
e 7 40
e 7 41
e 7 44
e 7 47
e 7 55
e 7 58
e 7 64
e 8 17
e 8 18
e 8 19
e 8 24
e 8 28
e 8 31
e 8 35
e 8 40
e 8 41
e 8 44
e 8 47
e 8 55
e 8 58
e 8 64
e 9 10
e 9 12
e 9 22
e 9 26
e 9 27
e 9 36
e 9 37
e 9 45
e 9 49
e 9 54
e 9 57
e 9 62
e 9 65
e 9 66
e 10 18
e 10 22
e 10 25
e 10 26
e 10 27
e 10 33
e 10 36
e 10 37
e 10 45
e 10 57
e 10 66
e 11 13
e 11 15
e 11 16
e 11 21
e 11 33
e 11 42
e 11 44
e 11 46
e 11 53
e 11 56
e 11 59
e 12 26
e 12 27
e 12 29
e 12 45
e 12 49
e 12 54
e 12 57
e 12 62
e 12 65
e 13 15
e 13 21
e 13 31
e 13 33
e 13 42
e 13 44
e 13 46
e 13 59
e 14 23
e 14 32
e 14 43
e 14 51
e 14 52
e 14 56
e 14 60
e 14 63
e 15 16
e 15 20
e 15 21
e 15 32
e 15 34
e 15 38
e 15 42
e 15 43
e 15 46
e 15 48
e 15 51
e 15 52
e 15 53
e 15 56
e 16 20
e 16 32
e 16 42
e 16 43
e 16 51
e 16 52
e 16 53
e 16 54
e 16 56
e 16 61
e 17 18
e 17 19
e 17 24
e 17 28
e 17 31
e 17 35
e 17 40
e 17 41
e 17 47
e 17 55
e 17 58
e 17 64
e 18 22
e 18 25
e 18 28
e 18 36
e 18 37
e 18 40
e 18 41
e 18 55
e 18 64
e 18 66
e 19 24
e 19 28
e 19 31
e 19 35
e 19 40
e 19 41
e 19 44
e 19 47
e 19 55
e 19 58
e 20 32
e 20 34
e 20 38
e 20 42
e 20 43
e 20 48
e 20 51
e 20 52
e 20 56
e 21 31
e 21 33
e 21 42
e 21 44
e 21 46
e 21 59
e 22 25
e 22 26
e 22 36
e 22 37
e 22 45
e 22 57
e 22 66
e 23 32
e 23 43
e 23 51
e 23 52
e 23 60
e 23 63
e 24 28
e 24 31
e 24 35
e 24 40
e 24 41
e 24 44
e 24 47
e 24 55
e 24 58
e 25 28
e 25 33
e 25 36
e 25 37
e 25 40
e 25 41
e 25 45
e 25 64
e 25 66
e 26 27
e 26 45
e 26 49
e 26 57
e 26 62
e 26 65
e 27 29
e 27 45
e 27 49
e 27 53
e 27 54
e 27 57
e 27 61
e 27 62
e 27 65
e 28 40
e 28 41
e 28 55
e 28 58
e 28 64
e 29 54
e 29 61
e 29 62
e 29 65
e 30 38
e 30 39
e 30 50
e 30 59
e 31 33
e 31 35
e 31 40
e 31 41
e 31 44
e 31 46
e 31 47
e 31 58
e 31 59
e 32 34
e 32 43
e 32 48
e 32 51
e 32 52
e 32 56
e 32 60
e 32 63
e 33 36
e 33 37
e 33 40
e 33 41
e 33 44
e 33 46
e 33 53
e 34 38
e 34 42
e 34 43
e 34 48
e 34 51
e 34 52
e 34 56
e 34 60
e 34 63
e 35 40
e 35 44
e 35 47
e 35 50
e 35 58
e 36 37
e 36 40
e 36 41
e 36 45
e 36 57
e 36 66
e 37 40
e 37 41
e 37 45
e 37 57
e 37 66
e 38 39
e 38 42
e 38 46
e 38 48
e 38 52
e 38 59
e 39 50
e 39 59
e 40 41
e 40 44
e 40 47
e 40 55
e 40 58
e 40 64
e 41 44
e 41 47
e 41 55
e 41 58
e 41 64
e 41 66
e 42 43
e 42 46
e 42 48
e 42 51
e 42 52
e 42 53
e 42 56
e 42 59
e 43 51
e 43 52
e 43 53
e 43 56
e 43 60
e 43 61
e 43 63
e 44 46
e 44 47
e 44 59
e 45 49
e 45 57
e 45 65
e 45 66
e 46 59
e 47 58
e 48 52
e 48 63
e 49 57
e 49 62
e 49 65
e 50 59
e 51 52
e 51 53
e 51 56
e 51 60
e 51 61
e 51 63
e 52 56
e 52 60
e 52 63
e 53 54
e 53 56
e 53 61
e 53 62
e 54 57
e 54 61
e 54 62
e 54 65
e 55 58
e 55 64
e 56 60
e 56 61
e 56 63
e 57 62
e 57 65
e 57 66
e 58 64
e 60 63
e 61 62
e 62 65
e 64 66
